\ Model GR_Model_SN
\ LP format - for model browsing. Use MPS format to capture full model detail.
Maximize
  alpha
Subject To
 name1[0]: 203.8969517085787 x[0] - 13 x[1] + 156.843809006599 x[2]
   - 3 x[3] + 235.2657135098984 x[4] - 15 x[5] + 156.843809006599 x[6]
   + 141.1594281059391 x[7] - 15 x[8] + 188.2125708079188 x[11] - 17 x[13]
   - 10 x[14] + 188.2125708079188 x[15] - 12 x[16] - 8 x[17]
   + 62.73752360263958 x[18] + 47.05314270197969 x[19] + alpha + 1000 a[0]
   <= 1000
 name1[1]: - 2 x[1] + 188.2125708079188 x[2] - 4 x[4]
   + 282.3188562118781 x[5] + 219.5813326092385 x[7] - 10 x[8]
   + 78.42190450329949 x[9] - 16 x[10] - 14 x[11] + 62.73752360263958 x[12]
   + 78.42190450329949 x[13] + 282.3188562118781 x[14] - 18 x[16]
   + 188.2125708079188 x[17] + 188.2125708079188 x[18] + alpha + 1000 a[1]
   <= 1000
 name1[2]: - 10 x[1] + 203.8969517085787 x[2] + 31.36876180131979 x[3]
   - 6 x[4] + 47.05314270197969 x[10] + 298.003237112538 x[11] - 10 x[12]
   + 62.73752360263958 x[13] + 235.2657135098984 x[14] - 3 x[15]
   + 78.42190450329949 x[18] + alpha + 1000 a[2] <= 1000
 name1[3]: 31.36876180131979 x[0] + 62.73752360263958 x[1] - 11 x[4]
   + 15.6843809006599 x[7] - 11 x[9] - 10 x[10] - 4 x[11]
   + 219.5813326092385 x[12] + 125.4750472052792 x[14] - 8 x[15] - 10 x[17]
   + 203.8969517085787 x[18] - 4 x[19] + alpha + 1000 a[3] <= 1000
 name1[4]: - 8 x[0] + 15.6843809006599 x[1] - 6 x[2] - 3 x[3] - 9 x[5]
   + 203.8969517085787 x[6] - 18 x[7] + 203.8969517085787 x[8] - 11 x[9]
   - 9 x[10] + 125.4750472052792 x[12] - 7 x[15] + 109.7906663046193 x[16]
   + 266.6344753112182 x[17] + 109.7906663046193 x[19] + alpha + 1000 a[4]
   <= 1000
 name1[5]: 188.2125708079188 x[0] + 78.42190450329949 x[1]
   + 266.6344753112182 x[2] - 5 x[3] - 19 x[4] + 266.6344753112182 x[6]
   + 266.6344753112182 x[11] + 266.6344753112182 x[12]
   + 172.5281899072588 x[13] - 10 x[14] + 172.5281899072588 x[15] - 7 x[16]
   + alpha + 1000 a[5] <= 1000
 name1[6]: 250.9500944105583 x[0] + 141.1594281059391 x[1]
   + 94.10628540395938 x[2] - 2 x[5] + 109.7906663046193 x[6]
   + 15.6843809006599 x[7] + 78.42190450329949 x[8] + 15.6843809006599 x[9]
   - 19 x[12] - 6 x[13] + 78.42190450329949 x[14] - 19 x[16] - 8 x[17]
   - 6 x[19] + alpha + 1000 a[6] <= 1000
 name1[7]: - 16 x[2] + 298.003237112538 x[3] - 19 x[4]
   + 172.5281899072588 x[6] - 19 x[8] + 109.7906663046193 x[9] - 11 x[10]
   + 250.9500944105583 x[11] - 2 x[12] + 94.10628540395938 x[14]
   + 282.3188562118781 x[16] + 47.05314270197969 x[17]
   + 266.6344753112182 x[18] - 4 x[19] + alpha + 1000 a[7] <= 1000
 name1[8]: 188.2125708079188 x[2] + 172.5281899072588 x[4] - 6 x[6]
   + 94.10628540395938 x[7] - 9 x[8] - 8 x[10] - 18 x[11]
   + 62.73752360263958 x[13] + 250.9500944105583 x[15]
   + 188.2125708079188 x[16] + alpha + 1000 a[8] <= 1000
 name1[9]: 109.7906663046193 x[1] - 14 x[2] - 10 x[3]
   + 109.7906663046193 x[8] - 18 x[10] + 94.10628540395938 x[12]
   + 172.5281899072588 x[15] - 10 x[16] - 11 x[17]
   + 31.36876180131979 x[18] + 109.7906663046193 x[19] + alpha + 1000 a[9]
   <= 1000
 name1[10]: - 15 x[0] + 109.7906663046193 x[1] + 172.5281899072588 x[3]
   - 12 x[5] + 15.6843809006599 x[6] - 17 x[7] - 15 x[9]
   + 15.6843809006599 x[10] + 31.36876180131979 x[12] - 2 x[13] - 10 x[15]
   - 3 x[16] + 250.9500944105583 x[19] + alpha + 1000 a[10] <= 1000
 name1[11]: 203.8969517085787 x[1] + 78.42190450329949 x[3] - 7 x[4]
   + 282.3188562118781 x[5] - 18 x[7] - 2 x[8] - 15 x[11] - 5 x[12]
   + 266.6344753112182 x[13] + 172.5281899072588 x[15]
   + 109.7906663046193 x[16] + alpha + 1000 a[11] <= 1000
 name1[12]: 78.42190450329949 x[0] - 13 x[3] - 13 x[4] - 3 x[6] - 17 x[7]
   - 13 x[8] - 16 x[9] + 235.2657135098984 x[10] - 9 x[11]
   + 109.7906663046193 x[13] + 219.5813326092385 x[14] - 9 x[15]
   + 141.1594281059391 x[16] - 5 x[17] + 188.2125708079188 x[18] - 6 x[19]
   + alpha + 1000 a[12] <= 1000
 name1[13]: - 4 x[0] + 219.5813326092385 x[1] + 125.4750472052792 x[3]
   - 7 x[5] - 2 x[6] + 172.5281899072588 x[7] - 10 x[9] - 14 x[11]
   + 250.9500944105583 x[12] - 4 x[14] + 250.9500944105583 x[16] - 5 x[17]
   - 16 x[18] + alpha + 1000 a[13] <= 1000
 name1[14]: 235.2657135098984 x[0] - x[3] + 141.1594281059391 x[4]
   + 172.5281899072588 x[5] - 19 x[7] - 3 x[9] + 15.6843809006599 x[11]
   - 12 x[12] - 16 x[13] - 13 x[14] - 13 x[15] - 8 x[16] - 7 x[18]
   - 16 x[19] + alpha + 1000 a[14] <= 1000
 name1[15]: - 19 x[1] + 298.003237112538 x[2] + 141.1594281059391 x[4]
   + 172.5281899072588 x[5] - 8 x[7] + 172.5281899072588 x[9] - 9 x[10]
   + 31.36876180131979 x[11] - 10 x[12] - 3 x[14] - 9 x[16]
   + 62.73752360263958 x[18] + alpha + 1000 a[15] <= 1000
 name1[16]: - 2 x[0] - 14 x[1] - 6 x[3] + 250.9500944105583 x[5] - 2 x[6]
   + 62.73752360263958 x[7] + 219.5813326092385 x[10]
   + 94.10628540395938 x[12] - x[13] - 13 x[14] + 109.7906663046193 x[15]
   + 62.73752360263958 x[16] - 4 x[19] + alpha + 1000 a[16] <= 1000
 name1[17]: - 16 x[1] - x[2] + 298.003237112538 x[4]
   + 125.4750472052792 x[5] + 219.5813326092385 x[6]
   + 235.2657135098984 x[7] - 14 x[10] + 203.8969517085787 x[13]
   + 203.8969517085787 x[16] + 109.7906663046193 x[17] - 12 x[18]
   + 94.10628540395938 x[19] + alpha + 1000 a[17] <= 1000
 name1[18]: - 13 x[1] - 3 x[4] - 18 x[5] - 12 x[9]
   + 141.1594281059391 x[11] - 7 x[12] + 109.7906663046193 x[13]
   + 47.05314270197969 x[15] + 78.42190450329949 x[16]
   + 235.2657135098984 x[18] + 282.3188562118781 x[19] + alpha + 1000 a[18]
   <= 1000
 name1[19]: - 10 x[0] - 15 x[1] - 19 x[3] + 94.10628540395938 x[4] - 8 x[5]
   + 298.003237112538 x[6] + 203.8969517085787 x[7] - x[8] - 17 x[11]
   + 31.36876180131979 x[13] + 219.5813326092385 x[14] - 11 x[15]
   - 17 x[16] - 12 x[17] - 18 x[18] + 250.9500944105583 x[19] + alpha
   + 1000 a[19] <= 1000
 name2[0]: 13 x[0] + 10 x[2] + 15 x[4] + 10 x[6] + 9 x[7] + 12 x[11]
   + 12 x[15] + 4 x[18] + 3 x[19] - a[0] >= 0
 name2[1]: 12 x[2] + 18 x[5] + 14 x[7] + 5 x[9] + 4 x[12] + 5 x[13]
   + 18 x[14] + 12 x[17] + 12 x[18] - a[1] >= 0
 name2[2]: 13 x[2] + 2 x[3] + 3 x[10] + 19 x[11] + 4 x[13] + 15 x[14]
   + 5 x[18] - a[2] >= 0
 name2[3]: 2 x[0] + 4 x[1] + x[7] + 14 x[12] + 8 x[14] + 13 x[18] - a[3]
   >= 0
 name2[4]: x[1] + 13 x[6] + 13 x[8] + 8 x[12] + 7 x[16] + 17 x[17]
   + 7 x[19] - a[4] >= 0
 name2[5]: 12 x[0] + 5 x[1] + 17 x[2] + 17 x[6] + 17 x[11] + 17 x[12]
   + 11 x[13] + 11 x[15] - a[5] >= 0
 name2[6]: 16 x[0] + 9 x[1] + 6 x[2] + 7 x[6] + x[7] + 5 x[8] + x[9]
   + 5 x[14] - a[6] >= 0
 name2[7]: 19 x[3] + 11 x[6] + 7 x[9] + 16 x[11] + 6 x[14] + 18 x[16]
   + 3 x[17] + 17 x[18] - a[7] >= 0
 name2[8]: 12 x[2] + 11 x[4] + 6 x[7] + 4 x[13] + 16 x[15] + 12 x[16]
   - a[8] >= 0
 name2[9]: 7 x[1] + 7 x[8] + 6 x[12] + 11 x[15] + 2 x[18] + 7 x[19] - a[9]
   >= 0
 name2[10]: 7 x[1] + 11 x[3] + x[6] + x[10] + 2 x[12] + 16 x[19] - a[10]
   >= 0
 name2[11]: 13 x[1] + 5 x[3] + 18 x[5] + 17 x[13] + 11 x[15] + 7 x[16]
   - a[11] >= 0
 name2[12]: 5 x[0] + 15 x[10] + 7 x[13] + 14 x[14] + 9 x[16] + 12 x[18]
   - a[12] >= 0
 name2[13]: 14 x[1] + 8 x[3] + 11 x[7] + 16 x[12] + 16 x[16] - a[13] >= 0
 name2[14]: 15 x[0] + 9 x[4] + 11 x[5] + x[11] - a[14] >= 0
 name2[15]: 19 x[2] + 9 x[4] + 11 x[5] + 11 x[9] + 2 x[11] + 4 x[18]
   - a[15] >= 0
 name2[16]: 16 x[5] + 4 x[7] + 14 x[10] + 6 x[12] + 7 x[15] + 4 x[16]
   - a[16] >= 0
 name2[17]: 19 x[4] + 8 x[5] + 14 x[6] + 15 x[7] + 13 x[13] + 13 x[16]
   + 7 x[17] + 6 x[19] - a[17] >= 0
 name2[18]: 9 x[11] + 7 x[13] + 3 x[15] + 5 x[16] + 15 x[18] + 18 x[19]
   - a[18] >= 0
 name2[19]: 6 x[4] + 19 x[6] + 13 x[7] + 2 x[13] + 14 x[14] + 16 x[19]
   - a[19] >= 0
 name3[0]: y[0] - z[0] - z[1] - z[2] - z[3] - z[4] - z[5] - z[6] - z[7]
   - z[8] - z[11] - z[13] - z[14] - z[15] - z[16] - z[17] - z[18] - z[19]
   <= 0
 name3[1]: y[1] - z[1] - z[2] - z[4] - z[5] - z[7] - z[8] - z[9] - z[10]
   - z[11] - z[12] - z[13] - z[14] - z[16] - z[17] - z[18] <= 0
 name3[2]: y[2] - z[1] - z[2] - z[3] - z[4] - z[10] - z[11] - z[12] - z[13]
   - z[14] - z[15] - z[18] <= 0
 name3[3]: y[3] - z[0] - z[1] - z[4] - z[7] - z[9] - z[10] - z[11] - z[12]
   - z[14] - z[15] - z[17] - z[18] - z[19] <= 0
 name3[4]: y[4] - z[0] - z[1] - z[2] - z[3] - z[5] - z[6] - z[7] - z[8]
   - z[9] - z[10] - z[12] - z[15] - z[16] - z[17] - z[19] <= 0
 name3[5]: y[5] - z[0] - z[1] - z[2] - z[3] - z[4] - z[6] - z[11] - z[12]
   - z[13] - z[14] - z[15] - z[16] <= 0
 name3[6]: y[6] - z[0] - z[1] - z[2] - z[5] - z[6] - z[7] - z[8] - z[9]
   - z[12] - z[13] - z[14] - z[16] - z[17] - z[19] <= 0
 name3[7]: y[7] - z[2] - z[3] - z[4] - z[6] - z[8] - z[9] - z[10] - z[11]
   - z[12] - z[14] - z[16] - z[17] - z[18] - z[19] <= 0
 name3[8]: y[8] - z[2] - z[4] - z[6] - z[7] - z[8] - z[10] - z[11] - z[13]
   - z[15] - z[16] <= 0
 name3[9]: y[9] - z[1] - z[2] - z[3] - z[8] - z[10] - z[12] - z[15] - z[16]
   - z[17] - z[18] - z[19] <= 0
 name3[10]: y[10] - z[0] - z[1] - z[3] - z[5] - z[6] - z[7] - z[9] - z[10]
   - z[12] - z[13] - z[15] - z[16] - z[19] <= 0
 name3[11]: y[11] - z[1] - z[3] - z[4] - z[5] - z[7] - z[8] - z[11] - z[12]
   - z[13] - z[15] - z[16] <= 0
 name3[12]: y[12] - z[0] - z[3] - z[4] - z[6] - z[7] - z[8] - z[9] - z[10]
   - z[11] - z[13] - z[14] - z[15] - z[16] - z[17] - z[18] - z[19] <= 0
 name3[13]: y[13] - z[0] - z[1] - z[3] - z[5] - z[6] - z[7] - z[9] - z[11]
   - z[12] - z[14] - z[16] - z[17] - z[18] <= 0
 name3[14]: y[14] - z[0] - z[3] - z[4] - z[5] - z[7] - z[9] - z[11] - z[12]
   - z[13] - z[14] - z[15] - z[16] - z[18] - z[19] <= 0
 name3[15]: y[15] - z[1] - z[2] - z[4] - z[5] - z[7] - z[9] - z[10] - z[11]
   - z[12] - z[14] - z[16] - z[18] <= 0
 name3[16]: y[16] - z[0] - z[1] - z[3] - z[5] - z[6] - z[7] - z[10] - z[12]
   - z[13] - z[14] - z[15] - z[16] - z[19] <= 0
 name3[17]: y[17] - z[1] - z[2] - z[4] - z[5] - z[6] - z[7] - z[10] - z[13]
   - z[16] - z[17] - z[18] - z[19] <= 0
 name3[18]: y[18] - z[1] - z[4] - z[5] - z[9] - z[11] - z[12] - z[13]
   - z[15] - z[16] - z[18] - z[19] <= 0
 name3[19]: y[19] - z[0] - z[1] - z[3] - z[4] - z[5] - z[6] - z[7] - z[8]
   - z[11] - z[13] - z[14] - z[15] - z[16] - z[17] - z[18] - z[19] <= 0
 name4[0]: a[0] - z[1] - z[3] - z[5] - z[8] - z[13] - z[14] - z[16] - z[17]
   <= 0
 name4[1]: a[1] - z[1] - z[4] - z[8] - z[10] - z[11] - z[16] <= 0
 name4[2]: a[2] - z[1] - z[4] - z[12] - z[15] <= 0
 name4[3]: a[3] - z[4] - z[9] - z[10] - z[11] - z[15] - z[17] - z[19] <= 0
 name4[4]: a[4] - z[0] - z[2] - z[3] - z[5] - z[7] - z[9] - z[10] - z[15]
   <= 0
 name4[5]: a[5] - z[3] - z[4] - z[14] - z[16] <= 0
 name4[6]: a[6] - z[5] - z[12] - z[13] - z[16] - z[17] - z[19] <= 0
 name4[7]: a[7] - z[2] - z[4] - z[8] - z[10] - z[12] - z[19] <= 0
 name4[8]: a[8] - z[6] - z[8] - z[10] - z[11] <= 0
 name4[9]: a[9] - z[2] - z[3] - z[10] - z[16] - z[17] <= 0
 name4[10]: a[10] - z[0] - z[5] - z[7] - z[9] - z[13] - z[15] - z[16] <= 0
 name4[11]: a[11] - z[4] - z[7] - z[8] - z[11] - z[12] <= 0
 name4[12]: a[12] - z[3] - z[4] - z[6] - z[7] - z[8] - z[9] - z[11] - z[15]
   - z[17] - z[19] <= 0
 name4[13]: a[13] - z[0] - z[5] - z[6] - z[9] - z[11] - z[14] - z[17]
   - z[18] <= 0
 name4[14]: a[14] - z[3] - z[7] - z[9] - z[12] - z[13] - z[14] - z[15]
   - z[16] - z[18] - z[19] <= 0
 name4[15]: a[15] - z[1] - z[7] - z[10] - z[12] - z[14] - z[16] <= 0
 name4[16]: a[16] - z[0] - z[1] - z[3] - z[6] - z[13] - z[14] - z[19] <= 0
 name4[17]: a[17] - z[1] - z[2] - z[10] - z[18] <= 0
 name4[18]: a[18] - z[1] - z[4] - z[5] - z[9] - z[12] <= 0
 name4[19]: a[19] - z[0] - z[1] - z[3] - z[5] - z[8] - z[11] - z[15]
   - z[16] - z[17] - z[18] <= 0
 name5[0]: a[0] - z[0] - z[2] - z[4] - z[6] - z[7] - z[11] - z[15] - z[18]
   - z[19] <= 0
 name5[1]: a[1] - z[2] - z[5] - z[7] - z[9] - z[12] - z[13] - z[14] - z[17]
   - z[18] <= 0
 name5[2]: a[2] - z[2] - z[3] - z[10] - z[11] - z[13] - z[14] - z[18] <= 0
 name5[3]: a[3] - z[0] - z[1] - z[7] - z[12] - z[14] - z[18] <= 0
 name5[4]: a[4] - z[1] - z[6] - z[8] - z[12] - z[16] - z[17] - z[19] <= 0
 name5[5]: a[5] - z[0] - z[1] - z[2] - z[6] - z[11] - z[12] - z[13] - z[15]
   <= 0
 name5[6]: a[6] - z[0] - z[1] - z[2] - z[6] - z[7] - z[8] - z[9] - z[14]
   <= 0
 name5[7]: a[7] - z[3] - z[6] - z[9] - z[11] - z[14] - z[16] - z[17]
   - z[18] <= 0
 name5[8]: a[8] - z[2] - z[4] - z[7] - z[13] - z[15] - z[16] <= 0
 name5[9]: a[9] - z[1] - z[8] - z[12] - z[15] - z[18] - z[19] <= 0
 name5[10]: a[10] - z[1] - z[3] - z[6] - z[10] - z[12] - z[19] <= 0
 name5[11]: a[11] - z[1] - z[3] - z[5] - z[13] - z[15] - z[16] <= 0
 name5[12]: a[12] - z[0] - z[10] - z[13] - z[14] - z[16] - z[18] <= 0
 name5[13]: a[13] - z[1] - z[3] - z[7] - z[12] - z[16] <= 0
 name5[14]: a[14] - z[0] - z[4] - z[5] - z[11] <= 0
 name5[15]: a[15] - z[2] - z[4] - z[5] - z[9] - z[11] - z[18] <= 0
 name5[16]: a[16] - z[5] - z[7] - z[10] - z[12] - z[15] - z[16] <= 0
 name5[17]: a[17] - z[4] - z[5] - z[6] - z[7] - z[13] - z[16] - z[17]
   - z[19] <= 0
 name5[18]: a[18] - z[11] - z[13] - z[15] - z[16] - z[18] - z[19] <= 0
 name5[19]: a[19] - z[4] - z[6] - z[7] - z[13] - z[14] - z[19] <= 0
 name6[0]: - y[0] + a[0] <= 0
 name6[1]: - y[1] + a[1] <= 0
 name6[2]: - y[2] + a[2] <= 0
 name6[3]: - y[3] + a[3] <= 0
 name6[4]: - y[4] + a[4] <= 0
 name6[5]: - y[5] + a[5] <= 0
 name6[6]: - y[6] + a[6] <= 0
 name6[7]: - y[7] + a[7] <= 0
 name6[8]: - y[8] + a[8] <= 0
 name6[9]: - y[9] + a[9] <= 0
 name6[10]: - y[10] + a[10] <= 0
 name6[11]: - y[11] + a[11] <= 0
 name6[12]: - y[12] + a[12] <= 0
 name6[13]: - y[13] + a[13] <= 0
 name6[14]: - y[14] + a[14] <= 0
 name6[15]: - y[15] + a[15] <= 0
 name6[16]: - y[16] + a[16] <= 0
 name6[17]: - y[17] + a[17] <= 0
 name6[18]: - y[18] + a[18] <= 0
 name6[19]: - y[19] + a[19] <= 0
 name7[0]: - a[4] - a[10] - a[13] - a[16] - a[19] + z[0] <= 0
 name7[1]: - a[0] - a[1] - a[2] - a[15] - a[16] - a[17] - a[18] - a[19]
   + z[1] <= 0
 name7[2]: - a[4] - a[7] - a[9] - a[17] + z[2] <= 0
 name7[3]: - a[0] - a[4] - a[5] - a[9] - a[12] - a[14] - a[16] - a[19]
   + z[3] <= 0
 name7[4]: - a[1] - a[2] - a[3] - a[5] - a[7] - a[11] - a[12] - a[18]
   + z[4] <= 0
 name7[5]: - a[0] - a[4] - a[6] - a[10] - a[13] - a[18] - a[19] + z[5]
   <= 0
 name7[6]: - a[8] - a[12] - a[13] - a[16] + z[6] <= 0
 name7[7]: - a[4] - a[10] - a[11] - a[12] - a[14] - a[15] + z[7] <= 0
 name7[8]: - a[0] - a[1] - a[7] - a[8] - a[11] - a[12] - a[19] + z[8] <= 0
 name7[9]: - a[3] - a[4] - a[10] - a[12] - a[13] - a[14] - a[18] + z[9]
   <= 0
 name7[10]: - a[1] - a[3] - a[4] - a[7] - a[8] - a[9] - a[15] - a[17]
   + z[10] <= 0
 name7[11]: - a[1] - a[3] - a[8] - a[11] - a[12] - a[13] - a[19] + z[11]
   <= 0
 name7[12]: - a[2] - a[6] - a[7] - a[11] - a[14] - a[15] - a[18] + z[12]
   <= 0
 name7[13]: - a[0] - a[6] - a[10] - a[14] - a[16] + z[13] <= 0
 name7[14]: - a[0] - a[5] - a[13] - a[14] - a[15] - a[16] + z[14] <= 0
 name7[15]: - a[2] - a[3] - a[4] - a[10] - a[12] - a[14] - a[19] + z[15]
   <= 0
 name7[16]: - a[0] - a[1] - a[5] - a[6] - a[9] - a[10] - a[14] - a[15]
   - a[19] + z[16] <= 0
 name7[17]: - a[0] - a[3] - a[6] - a[9] - a[12] - a[13] - a[19] + z[17]
   <= 0
 name7[18]: - a[13] - a[14] - a[17] - a[19] + z[18] <= 0
 name7[19]: - a[3] - a[6] - a[7] - a[12] - a[14] - a[16] + z[19] <= 0
 name8[0]: - a[0] - a[3] - a[5] - a[6] - a[12] - a[14] + z[0] <= 0
 name8[1]: - a[3] - a[4] - a[5] - a[6] - a[9] - a[10] - a[11] - a[13]
   + z[1] <= 0
 name8[2]: - a[0] - a[1] - a[2] - a[5] - a[6] - a[8] - a[15] + z[2] <= 0
 name8[3]: - a[2] - a[7] - a[10] - a[11] - a[13] + z[3] <= 0
 name8[4]: - a[0] - a[8] - a[14] - a[15] - a[17] - a[19] + z[4] <= 0
 name8[5]: - a[1] - a[11] - a[14] - a[15] - a[16] - a[17] + z[5] <= 0
 name8[6]: - a[0] - a[4] - a[5] - a[6] - a[7] - a[10] - a[17] - a[19]
   + z[6] <= 0
 name8[7]: - a[0] - a[1] - a[3] - a[6] - a[8] - a[13] - a[16] - a[17]
   - a[19] + z[7] <= 0
 name8[8]: - a[4] - a[6] - a[9] + z[8] <= 0
 name8[9]: - a[1] - a[6] - a[7] - a[15] + z[9] <= 0
 name8[10]: - a[2] - a[10] - a[12] - a[16] + z[10] <= 0
 name8[11]: - a[0] - a[2] - a[5] - a[7] - a[14] - a[15] - a[18] + z[11]
   <= 0
 name8[12]: - a[1] - a[3] - a[4] - a[5] - a[9] - a[10] - a[13] - a[16]
   + z[12] <= 0
 name8[13]: - a[1] - a[2] - a[5] - a[8] - a[11] - a[12] - a[17] - a[18]
   - a[19] + z[13] <= 0
 name8[14]: - a[1] - a[2] - a[3] - a[6] - a[7] - a[12] - a[19] + z[14]
   <= 0
 name8[15]: - a[0] - a[5] - a[8] - a[9] - a[11] - a[16] - a[18] + z[15]
   <= 0
 name8[16]: - a[4] - a[7] - a[8] - a[11] - a[12] - a[13] - a[16] - a[17]
   - a[18] + z[16] <= 0
 name8[17]: - a[1] - a[4] - a[7] - a[17] + z[17] <= 0
 name8[18]: - a[0] - a[1] - a[2] - a[3] - a[7] - a[9] - a[12] - a[15]
   - a[18] + z[18] <= 0
 name8[19]: - a[0] - a[4] - a[9] - a[10] - a[17] - a[18] - a[19] + z[19]
   <= 0
 name9[0]: x[0] - 1000 z[0] <= 0
 name9[1]: x[1] - 1000 z[1] <= 0
 name9[2]: x[2] - 1000 z[2] <= 0
 name9[3]: x[3] - 1000 z[3] <= 0
 name9[4]: x[4] - 1000 z[4] <= 0
 name9[5]: x[5] - 1000 z[5] <= 0
 name9[6]: x[6] - 1000 z[6] <= 0
 name9[7]: x[7] - 1000 z[7] <= 0
 name9[8]: x[8] - 1000 z[8] <= 0
 name9[9]: x[9] - 1000 z[9] <= 0
 name9[10]: x[10] - 1000 z[10] <= 0
 name9[11]: x[11] - 1000 z[11] <= 0
 name9[12]: x[12] - 1000 z[12] <= 0
 name9[13]: x[13] - 1000 z[13] <= 0
 name9[14]: x[14] - 1000 z[14] <= 0
 name9[15]: x[15] - 1000 z[15] <= 0
 name9[16]: x[16] - 1000 z[16] <= 0
 name9[17]: x[17] - 1000 z[17] <= 0
 name9[18]: x[18] - 1000 z[18] <= 0
 name9[19]: x[19] - 1000 z[19] <= 0
 name10[0]: - x[0] + z[0] <= 0
 name10[1]: - x[1] + z[1] <= 0
 name10[2]: - x[2] + z[2] <= 0
 name10[3]: - x[3] + z[3] <= 0
 name10[4]: - x[4] + z[4] <= 0
 name10[5]: - x[5] + z[5] <= 0
 name10[6]: - x[6] + z[6] <= 0
 name10[7]: - x[7] + z[7] <= 0
 name10[8]: - x[8] + z[8] <= 0
 name10[9]: - x[9] + z[9] <= 0
 name10[10]: - x[10] + z[10] <= 0
 name10[11]: - x[11] + z[11] <= 0
 name10[12]: - x[12] + z[12] <= 0
 name10[13]: - x[13] + z[13] <= 0
 name10[14]: - x[14] + z[14] <= 0
 name10[15]: - x[15] + z[15] <= 0
 name10[16]: - x[16] + z[16] <= 0
 name10[17]: - x[17] + z[17] <= 0
 name10[18]: - x[18] + z[18] <= 0
 name10[19]: - x[19] + z[19] <= 0
 name11: a[0] + a[1] + a[2] + a[3] + a[4] + a[5] + a[6] + a[7] + a[8]
   + a[9] + a[10] + a[11] + a[12] + a[13] + a[14] + a[15] + a[16] + a[17]
   + a[18] + a[19] >= 1
 name12: z[0] + z[1] + z[2] + z[3] + z[4] + z[5] + z[6] + z[7] + z[8]
   + z[9] + z[10] + z[11] + z[12] + z[13] + z[14] + z[15] + z[16] + z[17]
   + z[18] + z[19] >= 1
Bounds
 x[0] <= 1000
 x[1] <= 1000
 x[2] <= 1000
 x[3] <= 1000
 x[4] <= 1000
 x[5] <= 1000
 x[6] <= 1000
 x[7] <= 1000
 x[8] <= 1000
 x[9] <= 1000
 x[10] <= 1000
 x[11] <= 1000
 x[12] <= 1000
 x[13] <= 1000
 x[14] <= 1000
 x[15] <= 1000
 x[16] <= 1000
 x[17] <= 1000
 x[18] <= 1000
 x[19] <= 1000
Binaries
 y[0] y[1] y[2] y[3] y[4] y[5] y[6] y[7] y[8] y[9] y[10] y[11] y[12] y[13]
 y[14] y[15] y[16] y[17] y[18] y[19] a[0] a[1] a[2] a[3] a[4] a[5] a[6]
 a[7] a[8] a[9] a[10] a[11] a[12] a[13] a[14] a[15] a[16] a[17] a[18] a[19]
 z[0] z[1] z[2] z[3] z[4] z[5] z[6] z[7] z[8] z[9] z[10] z[11] z[12] z[13]
 z[14] z[15] z[16] z[17] z[18] z[19]
End
